data/MCDM/NO_CORR/GEN_FROM_60/17_ITEMS_1000_GEN/K5017W08.KNP.mps
NAME          BLANK   
ROWS
 N  OBJROW
 L  R0000000
COLUMNS
    C0000000  OBJROW     -318.         R0000000  766.        
    C0000001  OBJROW     -293.         R0000000  260.        
    C0000002  OBJROW     -164.         R0000000  911.        
    C0000003  OBJROW     -287.         R0000000  155.        
    C0000004  OBJROW     -225.         R0000000  538.        
    C0000005  OBJROW     -26.          R0000000  96.         
    C0000006  OBJROW     -703.         R0000000  29.         
    C0000007  OBJROW     -918.         R0000000  381.        
    C0000008  OBJROW     -980.         R0000000  590.        
    C0000009  OBJROW     -230.         R0000000  171.        
    C0000010  OBJROW     -900.         R0000000  668.        
    C0000011  OBJROW     -344.         R0000000  675.        
    C0000012  OBJROW     -782.         R0000000  154.        
    C0000013  OBJROW     -244.         R0000000  920.        
    C0000014  OBJROW     -14.          R0000000  377.        
    C0000015  OBJROW     -216.         R0000000  530.        
    C0000016  OBJROW     -769.         R0000000  593.        
RHS
    RHS       R0000000  15314.      
BOUNDS
 BV BOUND     C0000000  1.          
 BV BOUND     C0000001  1.          
 BV BOUND     C0000002  1.          
 BV BOUND     C0000003  1.          
 BV BOUND     C0000004  1.          
 BV BOUND     C0000005  1.          
 BV BOUND     C0000006  1.          
 BV BOUND     C0000007  1.          
 BV BOUND     C0000008  1.          
 BV BOUND     C0000009  1.          
 BV BOUND     C0000010  1.          
 BV BOUND     C0000011  1.          
 BV BOUND     C0000012  1.          
 BV BOUND     C0000013  1.          
 BV BOUND     C0000014  1.          
 BV BOUND     C0000015  1.          
 BV BOUND     C0000016  1.          
ENDATA
