data/MCDM/NO_CORR/GEN_FROM_60/17_ITEMS_1000_GEN/K5017W08.KNP.txt
N 17
M 18
LC 17
LC 18
LC 19
LC 20
LC 21
LC 22
LC 23
LC 24
LC 25
LC 26
LC 27
LC 28
LC 29
LC 30
LC 31
LC 32
LC 33
LR 1
LR 2
LR 3
LR 4
LR 5
LR 6
LR 7
LR 8
LR 9
LR 10
LR 11
LR 12
LR 13
LR 14
LR 15
LR 16
LR 17
LR 18
LO -318
LO -293
LO -164
LO -287
LO -225
LO -26
LO -703
LO -918
LO -980
LO -230
LO -900
LO -344
LO -782
LO -244
LO -14
LO -216
LO -769
OS 1
IC 288
IC 611
IC 406
IC 109
IC 915
IC 790
IC 675
IC 963
IC 598
IC 660
IC 708
IC 559
IC 853
IC 746
IC 623
IC 647
IC 948
IB 5550
